# From OPL, carmall.dat (smallest instance)
param nbCars := 6;
param nbOptions := 4;
param nbSlots := 10;

param demand  = 
 1 1
 2 1
 3 2
 4 2
 5 2
 6 2
;

param options: 1 2 3 4 5 6 :=
  1   1  0  0  0  1  1 
  2   0  0  1  1  0  1 
  3   1  0  0  0  1  0 
  4   1  1  0  1  0  0 
;

param capacity: 1 2 :=
  1   1 2 
  2   2 3 
  3   1 3 
  4   2 5 
;

